% Auto-generated by scripts/generate_dzn.py
% problem_type   = regex
% instance       = regex_56
% source_json    = instances_json/2_high_blowup/regex_56.json
% blowup         = 72.9090909090909
% representation = NFA

mode = 1;

var_count = 21;
n_constraints = 2;
Q = 16;
S = 3;
q0 = [1, 1];
F = [{16}, {6}];
weights = [5, 6, 3, 6, 6, 3, 2, 9, 6, 1, 1, 7, 10, 4, 6, 7, 2, 7, 5, 9, 6];
d_dfa = array3d(1..2, 1..16, 1..3, [
  % k = 1
    0, 0, 0,
    0, 0, 0,
    0, 0, 0,
    0, 0, 0,
    0, 0, 0,
    0, 0, 0,
    0, 0, 0,
    0, 0, 0,
    0, 0, 0,
    0, 0, 0,
    0, 0, 0,
    0, 0, 0,
    0, 0, 0,
    0, 0, 0,
    0, 0, 0,
    0, 0, 0,

  % k = 2
    0, 0, 0,
    0, 0, 0,
    0, 0, 0,
    0, 0, 0,
    0, 0, 0,
    0, 0, 0,
    0, 0, 0,
    0, 0, 0,
    0, 0, 0,
    0, 0, 0,
    0, 0, 0,
    0, 0, 0,
    0, 0, 0,
    0, 0, 0,
    0, 0, 0,
    0, 0, 0
]);
d_nfa = array3d(1..2, 1..16, 1..3, [
  % k = 1
    {1}, {1}, {1, 2},
    {3}, {}, {},
    {4}, {4}, {4},
    {5}, {5}, {5},
    {6}, {6}, {6},
    {7}, {7}, {7},
    {8}, {8}, {8},
    {9}, {9}, {9},
    {10}, {10}, {10},
    {11}, {11}, {11},
    {12}, {12}, {12},
    {13}, {13}, {13},
    {14}, {14}, {14},
    {15}, {15}, {15},
    {16}, {16}, {16},
    {}, {}, {},

  % k = 2
    {2}, {1}, {1},
    {3}, {2}, {2},
    {4}, {3}, {3},
    {5}, {4}, {4},
    {6}, {5}, {5},
    {}, {6}, {6},
    {}, {}, {},
    {}, {}, {},
    {}, {}, {},
    {}, {}, {},
    {}, {}, {},
    {}, {}, {},
    {}, {}, {},
    {}, {}, {},
    {}, {}, {},
    {}, {}, {}
]);
